c Reduced graph for 2-FullIns_4 generated by Cyril Grelier
p edge 41 161
e 1 7
e 1 14
e 1 15
e 1 16
e 1 20
e 1 21
e 1 22
e 1 23
e 1 24
e 1 25
e 1 26
e 1 27
e 1 32
e 1 33
e 1 34
e 1 35
e 1 36
e 1 37
e 1 38
e 1 39
e 1 40
e 1 41
e 2 4
e 2 5
e 2 6
e 2 12
e 2 13
e 2 14
e 2 15
e 2 16
e 2 17
e 2 18
e 2 19
e 2 23
e 2 24
e 2 30
e 2 31
e 2 32
e 2 33
e 2 34
e 2 37
e 2 38
e 3 8
e 3 9
e 3 17
e 3 18
e 3 19
e 3 20
e 3 28
e 3 29
e 3 30
e 3 31
e 3 32
e 3 33
e 3 34
e 3 35
e 3 36
e 3 37
e 3 38
e 3 39
e 3 40
e 3 41
e 4 5
e 4 6
e 4 7
e 4 9
e 4 15
e 4 16
e 4 18
e 4 19
e 4 20
e 4 33
e 4 34
e 5 6
e 5 7
e 5 9
e 5 14
e 5 16
e 5 17
e 5 19
e 5 20
e 5 32
e 5 34
e 6 7
e 6 9
e 6 14
e 6 15
e 6 17
e 6 18
e 6 20
e 6 32
e 6 33
e 7 8
e 7 12
e 7 13
e 7 17
e 7 18
e 7 19
e 7 30
e 7 31
e 8 14
e 8 15
e 8 16
e 8 21
e 8 22
e 8 23
e 8 24
e 8 25
e 8 26
e 8 27
e 9 12
e 9 13
e 9 14
e 9 15
e 9 16
e 9 23
e 9 24
e 10 11
e 10 13
e 10 22
e 10 24
e 10 29
e 10 31
e 10 36
e 10 38
e 11 12
e 11 21
e 11 23
e 11 28
e 11 30
e 11 35
e 11 37
e 12 20
e 12 22
e 12 29
e 12 36
e 13 20
e 13 21
e 13 28
e 13 35
e 14 18
e 14 19
e 15 17
e 15 19
e 16 17
e 16 18
e 21 29
e 21 31
e 22 28
e 22 30
e 23 29
e 24 28
e 25 26
e 25 27
e 25 40
e 25 41
e 26 27
e 26 39
e 26 41
e 27 39
e 27 40
